NAME          BLANK   
ROWS
 N  OBJROW
 L  R0000000
COLUMNS
    C0000000  OBJROW     -736.         R0000000  606.        
    C0000001  OBJROW     -387.         R0000000  963.        
    C0000002  OBJROW     -38.          R0000000  664.        
    C0000003  OBJROW     -996.         R0000000  553.        
    C0000004  OBJROW     -167.         R0000000  138.        
    C0000005  OBJROW     -330.         R0000000  681.        
    C0000006  OBJROW     -376.         R0000000  354.        
    C0000007  OBJROW     -10.          R0000000  543.        
    C0000008  OBJROW     -56.          R0000000  764.        
    C0000009  OBJROW     -754.         R0000000  101.        
    C0000010  OBJROW     -144.         R0000000  430.        
    C0000011  OBJROW     -355.         R0000000  811.        
    C0000012  OBJROW     -664.         R0000000  912.        
    C0000013  OBJROW     -835.         R0000000  331.        
    C0000014  OBJROW     -216.         R0000000  424.        
    C0000015  OBJROW     -737.         R0000000  433.        
    C0000016  OBJROW     -410.         R0000000  914.        
    C0000017  OBJROW     -407.         R0000000  119.        
    C0000018  OBJROW     -964.         R0000000  979.        
    C0000019  OBJROW     -535.         R0000000  504.        
    C0000020  OBJROW     -244.         R0000000  369.        
    C0000021  OBJROW     -741.         R0000000  634.        
    C0000022  OBJROW     -278.         R0000000  839.        
    C0000023  OBJROW     -301.         R0000000  844.        
    C0000024  OBJROW     -428.         R0000000  309.        
    C0000025  OBJROW     -415.         R0000000  118.        
    C0000026  OBJROW     -210.         R0000000  13.         
    C0000027  OBJROW     -392.         R0000000  740.        
    C0000028  OBJROW     -866.         R0000000  150.        
    C0000029  OBJROW     -817.         R0000000  845.        
    C0000030  OBJROW     -152.         R0000000  148.        
    C0000031  OBJROW     -546.         R0000000  111.        
    C0000032  OBJROW     -625.         R0000000  828.        
    C0000033  OBJROW     -584.         R0000000  653.        
    C0000034  OBJROW     -771.         R0000000  678.        
    C0000035  OBJROW     -904.         R0000000  427.        
    C0000036  OBJROW     -17.          R0000000  263.        
    C0000037  OBJROW     -721.         R0000000  507.        
    C0000038  OBJROW     -786.         R0000000  568.        
    C0000039  OBJROW     -761.         R0000000  979.        
    C0000040  OBJROW     -304.         R0000000  390.        
    C0000041  OBJROW     -402.         R0000000  77.         
    C0000042  OBJROW     -288.         R0000000  102.        
    C0000043  OBJROW     -650.         R0000000  75.         
    C0000044  OBJROW     -953.         R0000000  223.        
    C0000045  OBJROW     -288.         R0000000  315.        
    C0000046  OBJROW     -667.         R0000000  511.        
    C0000047  OBJROW     -448.         R0000000  67.         
    C0000048  OBJROW     -625.         R0000000  120.        
    C0000049  OBJROW     -577.         R0000000  945.        
RHS
    RHS       R0000000  12036.      
BOUNDS
 BV BOUND     C0000000  1.          
 BV BOUND     C0000001  1.          
 BV BOUND     C0000002  1.          
 BV BOUND     C0000003  1.          
 BV BOUND     C0000004  1.          
 BV BOUND     C0000005  1.          
 BV BOUND     C0000006  1.          
 BV BOUND     C0000007  1.          
 BV BOUND     C0000008  1.          
 BV BOUND     C0000009  1.          
 BV BOUND     C0000010  1.          
 BV BOUND     C0000011  1.          
 BV BOUND     C0000012  1.          
 BV BOUND     C0000013  1.          
 BV BOUND     C0000014  1.          
 BV BOUND     C0000015  1.          
 BV BOUND     C0000016  1.          
 BV BOUND     C0000017  1.          
 BV BOUND     C0000018  1.          
 BV BOUND     C0000019  1.          
 BV BOUND     C0000020  1.          
 BV BOUND     C0000021  1.          
 BV BOUND     C0000022  1.          
 BV BOUND     C0000023  1.          
 BV BOUND     C0000024  1.          
 BV BOUND     C0000025  1.          
 BV BOUND     C0000026  1.          
 BV BOUND     C0000027  1.          
 BV BOUND     C0000028  1.          
 BV BOUND     C0000029  1.          
 BV BOUND     C0000030  1.          
 BV BOUND     C0000031  1.          
 BV BOUND     C0000032  1.          
 BV BOUND     C0000033  1.          
 BV BOUND     C0000034  1.          
 BV BOUND     C0000035  1.          
 BV BOUND     C0000036  1.          
 BV BOUND     C0000037  1.          
 BV BOUND     C0000038  1.          
 BV BOUND     C0000039  1.          
 BV BOUND     C0000040  1.          
 BV BOUND     C0000041  1.          
 BV BOUND     C0000042  1.          
 BV BOUND     C0000043  1.          
 BV BOUND     C0000044  1.          
 BV BOUND     C0000045  1.          
 BV BOUND     C0000046  1.          
 BV BOUND     C0000047  1.          
 BV BOUND     C0000048  1.          
 BV BOUND     C0000049  1.          
ENDATA
